CMD:
./solvers/bin/cadical --plain --no-reduce -t 1600 ./data/cnfs//6s357r/6s357r.82.cnf

c --- [ banner ] -------------------------------------------------------------
c 
c CaDiCaL SAT Solver
c Copyright (c) 2016-2024
c A. Biere, M. Fleury, N. Froleyks, K. Fazekas, F. Pollitt, T. Faller
c JKU Linz, University of Freiburg, TU Wien
c 
c Version 2.1.3 5296d3d2a9bf48c154ab2acb5e44625776d821bf
c g++ (Gentoo 12.3.1_p20230526 p2) 12.3.1 20230526 -Wall -Wextra -O3 -DNDEBUG
c Sat Aug 9 07:26:21 PDT 2025 Linux cedar2.int.cedar.computecanada.ca 5.14.0-362.24.2.el9_3.x86_64 x86_64
c 
c --- [ limit ] --------------------------------------------------------------
c 
c setting time limit to 1600 seconds real time (due to '-t 1600')
c 
c --- [ parsing input ] ------------------------------------------------------
c 
c reading DIMACS file from './data/cnfs//6s357r/6s357r.82.cnf'
c opening file to read './data/cnfs//6s357r/6s357r.82.cnf'
c found 'p cnf 104191 307711' header
c parsed 307711 clauses in 0.05 seconds process time
c 
c --- [ options ] ------------------------------------------------------------
c 
c   --compact=false                (different from default 'true')
c   --decompose=false              (different from default 'true')
c   --deduplicate=false            (different from default 'true')
c   --elim=false                   (different from default 'true')
c   --probe=false                  (different from default 'true')
c   --reduce=false                 (different from default 'true')
c   --subsume=false                (different from default 'true')
c   --ternary=false                (different from default 'true')
c   --transred=false               (different from default 'true')
c   --vivify=false                 (different from default 'true')
c 
c --- [ solving ] ------------------------------------------------------------
c 
c time measured in process time since initialization
c 
c  seconds  reductions  redundant  irredundant
c         MB    restarts       trail       variables
c          level   conflicts       glue         remaining
c 
c *  0.06 50  0 0   0    0    0  0% 0 299347 99115 95%
c {  0.10 51  0 0   0    0    0  0% 0 299347 99115 95%
c i  0.10 51 40 0   0    7    3  8% 1 299347 99114 95%
c i  0.10 51 74 0   0   27   22  9% 1 299347 99103 95%
c i  0.10 51 122 0   2  104   98 12% 1 299347 99084 95%
c i  0.11 51 111 0   5  116  109 11% 1 299347 99057 95%
c i  0.11 51 110 0   5  117  109 11% 1 299347 99033 95%
c i  0.11 51 109 0   5  118  109 11% 1 299347 99013 95%
c i  0.11 51 108 0   5  119  109 11% 1 299347 98996 95%
c i  0.11 51 107 0   5  120  109 11% 1 299347 98982 95%
c i  0.11 51 106 0   5  121  109 11% 1 299347 98970 95%
c i  0.11 51 73 0   9  207  192 10% 1 299347 98962 95%
c i  0.11 51 68 0  18  257  240 10% 1 299347 98961 95%
c i  0.11 51 67 0  18  258  240 10% 1 299347 98957 95%
c i  0.11 51 67 0  18  259  240 10% 1 299347 98944 95%
c i  0.11 51 66 0  19  263  243 10% 1 299347 98936 95%
c i  0.11 51 66 0  20  264  243 10% 1 299347 98920 95%
c i  0.11 51 65 0  20  268  246 10% 1 299347 98910 95%
c i  0.11 51 62 0  25  288  265 10% 1 299347 98902 95%
c i  0.11 51 61 0  27  298  274 10% 1 299347 98890 95%
c 
c  seconds  reductions  redundant  irredundant
c         MB    restarts       trail       variables
c          level   conflicts       glue         remaining
c 
c i  0.11 51 61 0  28  299  274  9% 1 299347 98885 95%
c i  0.11 51 60 0  31  315  286 10% 1 299347 98882 95%
c i  0.12 51 55 0  44  366  333  9% 2 299347 98853 95%
c i  0.12 51 55 0  44  367  333  9% 2 299347 98830 95%
c i  0.12 51 55 0  44  368  333  9% 2 299347 98818 95%
c i  0.12 51 55 0  45  369  333  9% 2 299347 98806 95%
c i  0.12 51 54 0  46  376  337  9% 2 299347 98804 95%
c i  0.12 51 54 0  47  377  337  9% 2 299347 98782 95%
c i  0.12 51 52 0  52  394  353  9% 2 299347 98769 95%
c i  0.12 51 51 0  52  396  354  9% 2 299347 98764 95%
c i  0.12 51 51 0  53  397  354  9% 2 299347 98750 95%
c i  0.12 51 51 0  53  398  354  9% 2 299347 98742 95%
c i  0.12 51 51 0  53  400  354  9% 2 299347 98726 95%
c i  0.12 51 51 0  53  401  354  9% 2 299347 98717 95%
c i  0.12 51 51 0  53  402  354  9% 2 299347 98708 95%
c i  0.12 51 49 0  59  424  373  9% 2 299347 98661 95%
c i  0.12 51 49 0  59  425  373  9% 2 299347 98623 95%
c i  0.12 51 49 0  59  426  373  9% 2 299347 98556 95%
c i  0.12 51 49 0  59  427  373  9% 2 299347 98517 95%
c i  0.13 51 46 0  84  577  490  9% 2 299347 98514 95%
c 
c  seconds  reductions  redundant  irredundant
c         MB    restarts       trail       variables
c          level   conflicts       glue         remaining
c 
c i  0.13 51 45 0  87  592  501  9% 2 299347 98511 95%
c i  0.13 51 45 0  87  593  501  9% 2 299347 98506 95%
c i  0.13 51 44 0  95  620  527  9% 2 299347 98502 95%
c i  0.13 51 43 0  99  652  549  9% 2 299347 98485 95%
... skipped 9706 lines ...
v -103710 -103711 -103712 -103713 -103714 -103715 -103716 -103717 -103718
v -103719 -103720 -103721 -103722 -103723 -103724 -103725 -103726 -103727
v -103728 -103729 -103730 -103731 -103732 103733 -103734 103735 -103736 103737
v -103738 -103739 -103740 103741 103742 103743 -103744 -103745 -103746 -103747
v 103748 -103749 103750 -103751 103752 -103753 103754 103755 103756 -103757
v -103758 -103759 -103760 -103761 -103762 -103763 -103764 -103765 -103766
v -103767 -103768 -103769 -103770 -103771 -103772 -103773 -103774 103775
v -103776 -103777 -103778 -103779 -103780 -103781 -103782 -103783 -103784
v 103785 -103786 -103787 -103788 -103789 -103790 -103791 -103792 -103793
v -103794 -103795 -103796 -103797 -103798 -103799 -103800 -103801 -103802
v -103803 -103804 -103805 -103806 -103807 103808 -103809 103810 103811 103812
v 103813 -103814 103815 -103816 103817 -103818 -103819 -103820 103821 103822
v -103823 -103824 -103825 -103826 -103827 103828 -103829 -103830 103831 103832
v 103833 103834 -103835 103836 -103837 103838 103839 -103840 103841 103842
v 103843 -103844 -103845 103846 103847 -103848 -103849 -103850 -103851 -103852
v -103853 -103854 -103855 -103856 103857 -103858 -103859 -103860 -103861
v -103862 -103863 -103864 103865 103866 103867 103868 -103869 103870 -103871
v 103872 -103873 -103874 -103875 -103876 -103877 -103878 103879 -103880 103881
v -103882 103883 -103884 -103885 -103886 -103887 -103888 -103889 103890 103891
v 103892 103893 103894 103895 103896 103897 103898 -103899 103900 -103901
v 103902 -103903 103904 -103905 103906 -103907 103908 -103909 -103910 -103911
v -103912 -103913 -103914 -103915 -103916 103917 -103918 -103919 103920 103921
v 103922 103923 103924 103925 -103926 103927 -103928 103929 -103930 -103931
v -103932 103933 -103934 103935 -103936 103937 -103938 -103939 -103940 -103941
v -103942 103943 -103944 -103945 103946 103947 103948 103949 -103950 103951
v -103952 103953 103954 103955 103956 -103957 -103958 103959 103960 -103961
v -103962 -103963 -103964 -103965 -103966 103967 -103968 -103969 -103970
v 103971 103972 -103973 -103974 103975 -103976 103977 103978 103979 -103980
v 103981 -103982 103983 103984 103985 -103986 -103987 -103988 -103989 -103990
v 103991 -103992 -103993 103994 -103995 -103996 103997 103998 103999 104000
v 104001 -104002 -104003 -104004 104005 -104006 104007 104008 104009 104010
v 104011 -104012 104013 -104014 104015 -104016 -104017 104018 104019 -104020
v 104021 -104022 -104023 -104024 -104025 -104026 104027 -104028 104029 104030
v 104031 104032 -104033 104034 -104035 104036 -104037 -104038 -104039 104040
v 104041 -104042 -104043 104044 -104045 104046 -104047 104048 -104049 -104050
v -104051 104052 104053 -104054 -104055 104056 -104057 104058 -104059 104060
v -104061 -104062 -104063 104064 104065 -104066 -104067 -104068 104069 104070
v -104071 104072 -104073 104074 -104075 104076 104077 -104078 -104079 104080
v -104081 104082 -104083 104084 -104085 -104086 -104087 104088 104089 -104090
v -104091 104092 -104093 104094 -104095 104096 -104097 -104098 -104099 104100
v 104101 -104102 -104103 104104 -104105 104106 -104107 104108 -104109 -104110
v -104111 104112 104113 -104114 -104115 104116 -104117 104118 -104119 -104120
v 104121 -104122 104123 104124 104125 -104126 -104127 104128 -104129 104130
v -104131 104132 -104133 -104134 -104135 104136 104137 -104138 -104139 104140
v -104141 104142 104143 104144 104145 -104146 -104147 -104148 104149 -104150
v 104151 -104152 104153 -104154 -104155 -104156 -104157 -104158 -104159 104160
v -104161 -104162 104163 -104164 104165 -104166 -104167 -104168 -104169
v -104170 104171 -104172 -104173 -104174 104175 104176 -104177 -104178 104179
v -104180 -104181 104182 -104183 -104184 -104185 -104186 -104187 -104188
v 104189 104190 -104191 0
c 
c --- [ run-time profiling ] -------------------------------------------------
c 
c process time taken by individual solving procedures
c (percentage relative to process time for solving)
c 
c        68.05  100.00% search
c        51.00   74.95% unstable
c        16.13   23.70% stable
c         0.87    1.28% walk
c         0.05    0.08% parse
c         0.04    0.07% lucky
c         0.00    0.00% simplify
c   =================================
c        68.05   99.91% solve
c 
c last line shows process time for solving
c (percentage relative to total process time)
c 
c --- [ statistics ] ---------------------------------------------------------
c 
c chronological:             88678        30.04 %  of conflicts
c conflicts:                295247      4338.84    per second
c decisions:               1672314     24575.70    per second
c fixed:                     11212        10.76 %  of all variables
c learned:                  286898        97.17 %  per conflict
c learned_lits:           12195225       100.00 %  learned literals
c minimized:                     0         0.00 %  learned literals
c shrunken:                1840290        15.09 %  learned literals
c minishrunken:            1882863        15.44 %  learned literals
c otfs:                       1226         0.42 %  of conflict
c propagations:          537442442         7.90 M  per second
c rephased:                     23     12836.83    interval
c restarts:                  19142        15.42    interval
c stabilizing:                   4        57.58 %  of conflicts
c subsumed:                  17220         2.94 %  of all clauses
c strengthened:               1216         0.21 %  of all clauses
c walked:                        6     49207.83    interval
c 
c seconds are measured in process time for solving
c 
c --- [ resources ] ----------------------------------------------------------
c 
c total process time since initialization:        68.11    seconds
c total real time since initialization:           68.50    seconds
c maximum resident set size of process:          126.14    MB
c 
c --- [ shutting down ] ------------------------------------------------------
c 
c exit 10
